n=40;
t=50;
profit=[1 4 5 6 10 4 7 2 5 8 9 4 5 9 7 3 7 7 1 3 5 4 10 7 10 3 10 9 9 6 4 1 8 8 4 10 3 8 9 4];
length=[2 5 5 5 2 5 3 4 4 5 3 5 5 1 1 4 2 2 5 5 5 1 4 2 1 3 3 4 4 1 3 1 1 4 5 1 2 2 1 5];
min_deliver=[31 33 9 21 27 22 5 22 27 34 36 17 23 33 34 39 15 3 21 5 34 26 5 3 46 49 10 4 5 25 21 41 47 39 22 2 4 31 27 31];
max_deliver=[33 40 15 30 28 25 10 23 37 37 44 17 32 40 37 48 16 3 22 5 36 30 9 6 50 50 19 6 5 32 25 48 47 47 29 3 13 31 33 37];
surface=[3 5 5 2 2 2 1 1 1 3 2 5 5 4 2 5 4 4 2 5 1 3 4 4 5 3 4 5 5 3 4 5 5 5 5 4 4 2 1 2];
surface_capacity=16;
